unknown
(model
; cardinality of BoundSet is 1
(declare-sort BoundSet 0)
; rep: @uc_BoundSet_0
; cardinality of UnboundSet is 1
(declare-sort UnboundSet 0)
(declare-fun groundTerm_2 () UnboundSet)
(define-fun IsTerrible ((BOUND_VARIABLE_391 BoundSet)) Bool true)
(define-fun IsPerson ((BOUND_VARIABLE_391 BoundSet)) Bool true)
(define-fun Tripped ((BOUND_VARIABLE_403 BoundSet) (BOUND_VARIABLE_404 BoundSet)) Bool false)
(define-fun Stole ((BOUND_VARIABLE_403 BoundSet) (BOUND_VARIABLE_404 BoundSet)) Bool false)
)
sat
(model
; cardinality of BoundSet is 1
(declare-sort BoundSet 0)
; rep: @uc_BoundSet_0
; cardinality of UnboundSet is 1
(declare-sort UnboundSet 0)
(declare-fun groundTerm_4 () UnboundSet)
(define-fun IsTerrible ((BOUND_VARIABLE_431 BoundSet)) Bool true)
(define-fun IsPerson ((BOUND_VARIABLE_431 BoundSet)) Bool true)
(define-fun Tripped ((BOUND_VARIABLE_439 BoundSet) (BOUND_VARIABLE_440 BoundSet)) Bool false)
(define-fun Stole ((BOUND_VARIABLE_439 BoundSet) (BOUND_VARIABLE_440 BoundSet)) Bool true)
)
